Nick Keirstead
0 120 117 153 177 44 25 36 29 192 28 21 103 115 13 51 198 66 48 168 91 53 183 19 64 47 185 14 98 2 172 181 108 128 68 12 112 111 78 73 81 116 105 39 102 118 110 136 154 152 191 155 127 148 11 182 17 146 80 76 138 15 184 171 101 89 119 45 100 10 79 169 121 72 134 139 107 131 95 30 20 56 6 88 84 32 196 22 71 5 33 49 9 133 123 23 173 8 34 31 159 149 74 190 142 187 132 61 124 4 7 195 137 65 156 92 42 143 122 41 113 97 38 70 26 99 189 24 125 90 87 130 170 179 106 175 150 85 145 144 93 59 151 199 188 69 186 52 180 163 55 166 43 1 63 193 67 126 35 16 167 3 157 57 77 135 37 27 114 140 94 40 176 46 86 58 75 54 160 50 174 162 129 60 178 82 197 158 165 96 147 18 161 104 194 83 141 109 164 62 
